WARNING: for repeatability, setting FPU to use double precision
 -----------------------------------------------------------------------------------------------------------------------
|                                 manysat2.0    4 thread(s) on 8 core(s)                                                |
 -----------------------------------------------------------------------------------------------------------------------
 ===============================================[ Problem Statistics ]==================================================
|                                                                                                                       |
|  Number of cores:                 4                                                                                   |
|  Number of variables:        106013                                                                                   |
|  Number of clauses:         1598300                                                                                   |
|  Parse time:                   0.78 s                                                                                 |
|                                                                                                                       |
 ==============================================[ Search Statistics ]====================================================
|   Thread  | Conflicts |          ORIGINAL         |          LEARNT          |  exported  / imported      |  Progress |
|    (id)   |           |    Vars  Clauses Literals |    Limit  Clauses Lit/Cl |  (clauses by restart)      |           |
 =======================================================================================================================
|         1 |       100 |  106006  1598269  4617335 |   586043      151     24 |           0  -          51 |  0.007 %  |
|         0 |       100 |  106006  1598269  4617335 |   586031      183     22 |           0  -          83 |  0.007 %  |
|         3 |       100 |  106006  1598269  4617335 |   586043      192     25 |           0  -          92 |  0.007 %  |
|         2 |       100 |  106006  1598269  4617335 |   586043      216     21 |           0  -         116 |  0.007 %  |
|         1 |       250 |  106006  1598269  4617335 |   644647      360     27 |           0  -         110 |  0.007 %  |
|         0 |       250 |  106006  1598269  4617335 |   644635      398     23 |           0  -         148 |  0.007 %  |
|         2 |       250 |  106006  1598269  4617335 |   644647      478     21 |           0  -         228 |  0.007 %  |
|         1 |       475 |  106006  1598269  4617335 |   709112      675     26 |           0  -         200 |  0.007 %  |
|         3 |       250 |  106006  1598269  4617335 |   644647      526     23 |           0  -         276 |  0.007 %  |
|         2 |       475 |  106006  1598269  4617335 |   709112      812     24 |           0  -         337 |  0.007 %  |
|         3 |       475 |  106006  1598269  4617335 |   709112      811     25 |           0  -         336 |  0.007 %  |
|         0 |       475 |  106006  1598269  4617335 |   709098      790     24 |           0  -         315 |  0.007 %  |
|         1 |       812 |  106006  1598269  4617335 |   780023     1162     28 |           0  -         350 |  0.007 %  |
|         2 |       812 |  106006  1598269  4617335 |   780023     1236     25 |           0  -         424 |  0.007 %  |
|         1 |      1318 |  106006  1598269  4617335 |   858026     1791     29 |           0  -         473 |  0.007 %  |
|         3 |       812 |  106006  1598269  4617335 |   780023     1321     24 |           0  -         509 |  0.007 %  |
|         0 |       812 |  106006  1598269  4617335 |   780008     1319     26 |           0  -         507 |  0.007 %  |
|         2 |      1318 |  106006  1598269  4617335 |   858026     1882     26 |           0  -         564 |  0.007 %  |
|         3 |      1318 |  106006  1598269  4617335 |   858026     1960     26 |           0  -         642 |  0.007 %  |
|         1 |      2077 |  106006  1598269  4617335 |   943828     2790     27 |           0  -         713 |  0.007 %  |
|         2 |      2077 |  106006  1598269  4617335 |   943828     2911     27 |           0  -         833 |  0.007 %  |
|         0 |      1318 |  106006  1598269  4617335 |   858009     2126     25 |           0  -         808 |  0.007 %  |
|         3 |      2077 |  106006  1598269  4617335 |   943828     3036     25 |           0  -         959 |  0.007 %  |
|         1 |      3216 |  106006  1598269  4617335 |  1038211     4284     32 |           0  -        1068 |  0.007 %  |
|         2 |      3216 |  106006  1598269  4617335 |  1038211     4317     32 |           0  -        1099 |  0.007 %  |
|         3 |      3216 |  106006  1598269  4617335 |  1038211     4282     31 |           0  -        1066 |  0.007 %  |
|         0 |      2077 |  106006  1598269  4617335 |   943810     3229     30 |           0  -        1152 |  0.007 %  |
|         1 |      4924 |  106006  1598269  4617335 |  1142032     6259     32 |           0  -        1334 |  0.007 %  |
|         2 |      4924 |  106006  1598269  4617335 |  1142032     6238     36 |           0  -        1312 |  0.007 %  |
|         0 |      3216 |  106006  1598269  4617335 |  1038191     4485     39 |           0  -        1269 |  0.007 %  |
|         3 |      4924 |  106006  1598269  4617335 |  1142032     6274     35 |           0  -        1348 |  0.007 %  |
|         0 |      4924 |  106006  1598269  4617335 |  1142010     6274     57 |           0  -        1350 |  0.007 %  |
|         2 |      7486 |  106006  1598269  4617335 |  1256235     9043     46 |           0  -        1555 |  0.007 %  |
|         1 |      7486 |  106006  1598269  4617335 |  1256235     9140     36 |           0  -        1652 |  0.007 %  |
|         3 |      7486 |  106006  1598269  4617335 |  1256235     9132     38 |           0  -        1643 |  0.007 %  |
|         0 |      7486 |  106006  1598269  4617335 |  1256211     8989     64 |           0  -        1503 |  0.007 %  |
|         2 |     11330 |  106006  1598269  4617335 |  1381859    13098     48 |           0  -        1766 |  0.007 %  |
|         1 |     11330 |  106006  1598269  4617335 |  1381859    13154     39 |           0  -        1822 |  0.007 %  |
|         3 |     11330 |  106006  1598269  4617335 |  1381859    13120     41 |           0  -        1787 |  0.007 %  |
|         0 |     11330 |  106006  1598269  4617335 |  1381832    12992     63 |           0  -        1662 |  0.007 %  |
|         2 |     17096 |  106006  1598269  4617335 |  1520045    19292     46 |           0  -        2194 |  0.007 %  |
|         1 |     17096 |  106006  1598269  4617335 |  1520045    19340     39 |           0  -        2241 |  0.007 %  |
|         3 |     17096 |  106006  1598269  4617335 |  1520045    19460     39 |           0  -        2345 |  0.007 %  |
|         1 |     25745 |  106006  1598269  4617335 |  1672050    28903     46 |           0  -        3150 |  0.007 %  |
|         0 |     17096 |  106006  1598269  4617335 |  1520015    20096     83 |           0  -        3000 |  0.007 %  |
|         2 |     25745 |  106006  1598269  4617335 |  1672050    29394     49 |           0  -        3635 |  0.007 %  |
|         3 |     25745 |  106006  1598269  4617335 |  1672050    29211     47 |           0  -        3442 |  0.007 %  |
|         0 |     25745 |  106006  1598269  4617335 |  1672017    29837     90 |           0  -        4092 |  0.007 %  |
|         3 |     38719 |  106006  1598269  4617335 |  1839255    43191     88 |           0  -        4447 |  0.007 %  |
|         1 |     38719 |  106006  1598269  4617335 |  1839255    43182     53 |           0  -        4455 |  0.007 %  |
|         2 |     38719 |  106006  1598269  4617335 |  1839255    43608     62 |           0  -        4875 |  0.007 %  |
|         0 |     38719 |  106006  1598269  4617335 |  1839219    43491    121 |           0  -        4772 |  0.007 %  |
|         3 |     58180 |  106006  1598269  4617335 |  2023180    63474    143 |           0  -        5269 |  0.007 %  |
|         2 |     58180 |  106006  1598269  4617335 |  2023180    63556     95 |           0  -        5362 |  0.007 %  |
|         1 |     58180 |  106006  1598269  4617335 |  2023180    63414    131 |           0  -        5226 |  0.007 %  |
|         0 |     58180 |  106006  1598269  4617335 |  2023141    63455    145 |           0  -        5275 |  0.007 %  |
|         2 |     87372 |  106006  1598269  4617335 |  2225498    93453    169 |           0  -        6067 |  0.007 %  |
|         3 |     87372 |  106006  1598269  4617335 |  2225498    93321    147 |           0  -        5924 |  0.007 %  |
|         1 |     87372 |  106006  1598269  4617335 |  2225498    93161    137 |           0  -        5781 |  0.007 %  |
|         0 |     87372 |  106006  1598269  4617335 |  2225455    93140    168 |           0  -        5768 |  0.007 %  |
|         3 |    131161 |  106006  1598269  4617335 |  2448048   137578    160 |           0  -        6392 |  0.007 %  |
|         0 |    131161 |  106006  1598269  4617335 |  2448000   137294    191 |           0  -        6133 |  0.007 %  |
|         2 |    131161 |  106006  1598269  4617335 |  2448048   138048    263 |           0  -        6873 |  0.007 %  |
|         1 |    131161 |  106006  1598269  4617335 |  2448048   137598    246 |           0  -        6429 |  0.007 %  |
|         1 |    196845 |  106006  1598269  4617335 |  2692853   203539    193 |           0  -        6686 |  0.007 %  |
|         0 |    196845 |  106006  1598269  4617335 |  2692801   203465    190 |           0  -        6620 |  0.007 %  |
|         3 |    196845 |  106006  1598269  4617335 |  2692853   203945    265 |           0  -        7075 |  0.007 %  |
|         2 |    196845 |  106006  1598269  4617335 |  2692853   204186    302 |           0  -        7327 |  0.007 %  |
|         0 |    295371 |  106006  1598269  4617335 |  2962081   302371    175 |           0  -        7000 |  0.007 %  |
|         1 |    295371 |  106006  1598269  4617335 |  2962138   302506    261 |           0  -        7127 |  0.007 %  |
|         2 |    295371 |  106006  1598269  4617335 |  2962138   302960    261 |           0  -        7575 |  0.007 %  |
